84
120
96	5
95	2
94	2
93	3
92	6
91	6
90	2
89	2
88	4
87	3
86	2
85	1
84	3
83	3
82	4
81	2
80	4
79	2
78	5
77	9
76	5
75	1
74	2
73	3
72	4
71	2
70	1
69	4
67	6
66	2
65	7
64	3
63	3
62	4
61	4
60	3
59	2
58	1
57	2
56	7
55	5
54	1
53	7
52	5
51	3
50	7
49	5
48	2
47	4
46	4
45	3
44	7
43	4
42	5
41	3
40	4
39	8
38	5
37	1
36	5
35	6
34	2
33	4
32	3
31	1
30	2
29	2
28	4
27	1
26	2
25	4
24	4
23	6
22	3
21	2
20	4
19	3
18	3
17	10
16	3
15	1
14	1
13	2
12	3
